32      7       
15      14      19      14      20      19      13      
0       0       0       0       0       0       0       0       1       2       
9       5       0       1       3       1       5       0       1       3       
4       0       0       0       0       2       6       1       2       4       8       
5       9       0       8       0       0       0       1       1       5       
6       2       2       1       1       13      0       4       2       6       7       
4       1       6       0       6       0       7       0       2       9       12      
5       0       6       0       4       1       3       0       1       10      
10      0       0       0       6       3       1       1       1       9       
4       6       9       0       0       1       0       1       2       11      13      
3       2       0       6       6       16      1       0       2       11      13      
4       0       0       1       0       6       5       3       3       14      15      17      
7       2       0       1       1       0       8       1       3       14      15      17      
5       1       1       0       0       0       9       3       1       14      
2       1       3       7       11      0       0       0       3       16      18      24      
5       12      13      0       1       20      0       0       2       16      24      
3       1       6       0       0       5       0       6       3       19      20      22      
10      0       4       0       4       1       0       0       3       19      20      23      
5       4       14      1       6       8       0       1       3       20      22      23      
10      0       13      6       14      0       1       0       1       21      
5       14      0       10      0       0       7       0       1       25      
8       0       9       4       6       0       0       1       1       25      
5       0       10      6       0       3       0       4       1       25      
5       1       2       1       0       0       1       5       1       25      
3       6       0       1       7       8       0       0       1       25      
1       4       0       0       8       0       6       1       2       26      27      
1       0       1       0       0       1       6       12      2       28      29      
4       11      0       1       2       3       0       2       1       28      
2       0       0       4       0       0       2       1       2       30      31      
9       0       2       12      0       1       4       1       1       30      
6       7       8       0       2       0       1       0       1       32      
8       0       4       1       10      8       6       0       1       32      
0       0       0       0       0       0       0       0       0       
